Route #1: 53 37 49 29 58 
Route #2: 18 61 38 17 55 
Route #3: 14 27 5 39 31 44 
Route #4: 51 32 59 52 45 48 12 35 33 21 
Route #5: 50 7 28 36 9 62 8 
Route #6: 63 23 56 34 24 22 
Route #7: 57 47 25 
Route #8: 6 46 40 2 42 10 13 3 15 
Route #9: 60 11 20 43 4 54 26 41 
Route #10: 30 16 19 
cost 1437.1
